************************************************************************
* file: instancias_geradas/folfiri_25_pacientes.sm
* - Instance: FOLFIRI protocol for 25 patients
* - nr. of activities:   202 (incl. source/sink)
* - nr. of renewable resources: 4
************************************************************************
jobs (incl. supersource/sink ): 202
horizon:                         5000 
renewable resources:             4

PRECEDENCE RELATIONS:
- jobnr. mode successors...
  1   1   76   1 2 3 4 9 10 11 17 18 19 25 26 27 33 34 35 41 42 43 49 50 51 57 58 59 65 66 67 73 74 75 81 82 83 89 90 91 97 98 99 105 106 107 113 114 115 121 122 123 129 130 131 137 138 139 145 146 147 153 154 155 161 162 163 169 170 171 177 178 179 185 186 187 193 194 195
  2   1   1    4
  3   1   1    5
  4   1   1    5
  5   1   1    6
  6   1   1    7
  7   1   1    8
  8   1   1    202
  9   1   1    12
  10  1   1    12
  11  1   1    13
  12  1   1    13
  13  1   1    14
  14  1   1    15
  15  1   1    16
  16  1   1    202
  17  1   1    20
  18  1   1    20
  19  1   1    21
  20  1   1    21
  21  1   1    22
  22  1   1    23
  23  1   1    24
  24  1   1    202
  25  1   1    28
  26  1   1    28
  27  1   1    29
  28  1   1    29
  29  1   1    30
  30  1   1    31
  31  1   1    32
  32  1   1    202
  33  1   1    36
  34  1   1    36
  35  1   1    37
  36  1   1    37
  37  1   1    38
  38  1   1    39
  39  1   1    40
  40  1   1    202
  41  1   1    44
  42  1   1    44
  43  1   1    45
  44  1   1    45
  45  1   1    46
  46  1   1    47
  47  1   1    48
  48  1   1    202
  49  1   1    52
  50  1   1    52
  51  1   1    53
  52  1   1    53
  53  1   1    54
  54  1   1    55
  55  1   1    56
  56  1   1    202
  57  1   1    60
  58  1   1    60
  59  1   1    61
  60  1   1    61
  61  1   1    62
  62  1   1    63
  63  1   1    64
  64  1   1    202
  65  1   1    68
  66  1   1    68
  67  1   1    69
  68  1   1    69
  69  1   1    70
  70  1   1    71
  71  1   1    72
  72  1   1    202
  73  1   1    76
  74  1   1    76
  75  1   1    77
  76  1   1    77
  77  1   1    78
  78  1   1    79
  79  1   1    80
  80  1   1    202
  81  1   1    84
  82  1   1    84
  83  1   1    85
  84  1   1    85
  85  1   1    86
  86  1   1    87
  87  1   1    88
  88  1   1    202
  89  1   1    92
  90  1   1    92
  91  1   1    93
  92  1   1    93
  93  1   1    94
  94  1   1    95
  95  1   1    96
  96  1   1    202
  97  1   1    100
  98  1   1    100
  99  1   1    101
  100 1   1    101
  101 1   1    102
  102 1   1    103
  103 1   1    104
  104 1   1    202
  105 1   1    108
  106 1   1    108
  107 1   1    109
  108 1   1    109
  109 1   1    110
  110 1   1    111
  111 1   1    112
  112 1   1    202
  113 1   1    116
  114 1   1    116
  115 1   1    117
  116 1   1    117
  117 1   1    118
  118 1   1    119
  119 1   1    120
  120 1   1    202
  121 1   1    124
  122 1   1    124
  123 1   1    125
  124 1   1    125
  125 1   1    126
  126 1   1    127
  127 1   1    128
  128 1   1    202
  129 1   1    132
  130 1   1    132
  131 1   1    133
  132 1   1    133
  133 1   1    134
  134 1   1    135
  135 1   1    136
  136 1   1    202
  137 1   1    140
  138 1   1    140
  139 1   1    141
  140 1   1    141
  141 1   1    142
  142 1   1    143
  143 1   1    144
  144 1   1    202
  145 1   1    148
  146 1   1    148
  147 1   1    149
  148 1   1    149
  149 1   1    150
  150 1   1    151
  151 1   1    152
  152 1   1    202
  153 1   1    156
  154 1   1    156
  155 1   1    157
  156 1   1    157
  157 1   1    158
  158 1   1    159
  159 1   1    160
  160 1   1    202
  161 1   1    164
  162 1   1    164
  163 1   1    165
  164 1   1    165
  165 1   1    166
  166 1   1    167
  167 1   1    168
  168 1   1    202
  169 1   1    172
  170 1   1    172
  171 1   1    173
  172 1   1    173
  173 1   1    174
  174 1   1    175
  175 1   1    176
  176 1   1    202
  177 1   1    180
  178 1   1    180
  179 1   1    181
  180 1   1    181
  181 1   1    182
  182 1   1    183
  183 1   1    184
  184 1   1    202
  185 1   1    188
  186 1   1    188
  187 1   1    189
  188 1   1    189
  189 1   1    190
  190 1   1    191
  191 1   1    192
  192 1   1    202
  193 1   1    196
  194 1   1    196
  195 1   1    197
  196 1   1    197
  197 1   1    198
  198 1   1    199
  199 1   1    200
  200 1   1    202
  201 1   0    
  202 1   0    

REQUESTS/DURATIONS:
- jobnr. mode duration R1 R2 R3 R4
  1   1   0    0  0  0  0 
  2   1   2    0  0  1  0 
  3   1   4    0  0  0  1 
  4   1   1    1  1  0  0 
  5   1   6    1  1  0  0 
  6   1   8    1  1  0  0 
  7   1   1    1  1  0  0 
  8   1   2    1  1  0  0 
  9   1   2    1  0  0  0 
  10  1   2    0  0  1  0 
  11  1   4    0  0  0  1 
  12  1   1    1  1  0  0 
  13  1   6    1  1  0  0 
  14  1   8    1  1  0  0 
  15  1   1    1  1  0  0 
  16  1   2    1  1  0  0 
  17  1   2    1  0  0  0 
  18  1   2    0  0  1  0 
  19  1   4    0  0  0  1 
  20  1   1    1  1  0  0 
  21  1   6    1  1  0  0 
  22  1   8    1  1  0  0 
  23  1   1    1  1  0  0 
  24  1   2    1  1  0  0 
  25  1   2    1  0  0  0 
  26  1   2    0  0  1  0 
  27  1   4    0  0  0  1 
  28  1   1    1  1  0  0 
  29  1   6    1  1  0  0 
  30  1   8    1  1  0  0 
  31  1   1    1  1  0  0 
  32  1   2    1  1  0  0 
  33  1   2    1  0  0  0 
  34  1   2    0  0  1  0 
  35  1   4    0  0  0  1 
  36  1   1    1  1  0  0 
  37  1   6    1  1  0  0 
  38  1   8    1  1  0  0 
  39  1   1    1  1  0  0 
  40  1   2    1  1  0  0 
  41  1   2    1  0  0  0 
  42  1   2    0  0  1  0 
  43  1   4    0  0  0  1 
  44  1   1    1  1  0  0 
  45  1   6    1  1  0  0 
  46  1   8    1  1  0  0 
  47  1   1    1  1  0  0 
  48  1   2    1  1  0  0 
  49  1   2    1  0  0  0 
  50  1   2    0  0  1  0 
  51  1   4    0  0  0  1 
  52  1   1    1  1  0  0 
  53  1   6    1  1  0  0 
  54  1   8    1  1  0  0 
  55  1   1    1  1  0  0 
  56  1   2    1  1  0  0 
  57  1   2    1  0  0  0 
  58  1   2    0  0  1  0 
  59  1   4    0  0  0  1 
  60  1   1    1  1  0  0 
  61  1   6    1  1  0  0 
  62  1   8    1  1  0  0 
  63  1   1    1  1  0  0 
  64  1   2    1  1  0  0 
  65  1   2    1  0  0  0 
  66  1   2    0  0  1  0 
  67  1   4    0  0  0  1 
  68  1   1    1  1  0  0 
  69  1   6    1  1  0  0 
  70  1   8    1  1  0  0 
  71  1   1    1  1  0  0 
  72  1   2    1  1  0  0 
  73  1   2    1  0  0  0 
  74  1   2    0  0  1  0 
  75  1   4    0  0  0  1 
  76  1   1    1  1  0  0 
  77  1   6    1  1  0  0 
  78  1   8    1  1  0  0 
  79  1   1    1  1  0  0 
  80  1   2    1  1  0  0 
  81  1   2    1  0  0  0 
  82  1   2    0  0  1  0 
  83  1   4    0  0  0  1 
  84  1   1    1  1  0  0 
  85  1   6    1  1  0  0 
  86  1   8    1  1  0  0 
  87  1   1    1  1  0  0 
  88  1   2    1  1  0  0 
  89  1   2    1  0  0  0 
  90  1   2    0  0  1  0 
  91  1   4    0  0  0  1 
  92  1   1    1  1  0  0 
  93  1   6    1  1  0  0 
  94  1   8    1  1  0  0 
  95  1   1    1  1  0  0 
  96  1   2    1  1  0  0 
  97  1   2    1  0  0  0 
  98  1   2    0  0  1  0 
  99  1   4    0  0  0  1 
  100 1   1    1  1  0  0 
  101 1   6    1  1  0  0 
  102 1   8    1  1  0  0 
  103 1   1    1  1  0  0 
  104 1   2    1  1  0  0 
  105 1   2    1  0  0  0 
  106 1   2    0  0  1  0 
  107 1   4    0  0  0  1 
  108 1   1    1  1  0  0 
  109 1   6    1  1  0  0 
  110 1   8    1  1  0  0 
  111 1   1    1  1  0  0 
  112 1   2    1  1  0  0 
  113 1   2    1  0  0  0 
  114 1   2    0  0  1  0 
  115 1   4    0  0  0  1 
  116 1   1    1  1  0  0 
  117 1   6    1  1  0  0 
  118 1   8    1  1  0  0 
  119 1   1    1  1  0  0 
  120 1   2    1  1  0  0 
  121 1   2    1  0  0  0 
  122 1   2    0  0  1  0 
  123 1   4    0  0  0  1 
  124 1   1    1  1  0  0 
  125 1   6    1  1  0  0 
  126 1   8    1  1  0  0 
  127 1   1    1  1  0  0 
  128 1   2    1  1  0  0 
  129 1   2    1  0  0  0 
  130 1   2    0  0  1  0 
  131 1   4    0  0  0  1 
  132 1   1    1  1  0  0 
  133 1   6    1  1  0  0 
  134 1   8    1  1  0  0 
  135 1   1    1  1  0  0 
  136 1   2    1  1  0  0 
  137 1   2    1  0  0  0 
  138 1   2    0  0  1  0 
  139 1   4    0  0  0  1 
  140 1   1    1  1  0  0 
  141 1   6    1  1  0  0 
  142 1   8    1  1  0  0 
  143 1   1    1  1  0  0 
  144 1   2    1  1  0  0 
  145 1   2    1  0  0  0 
  146 1   2    0  0  1  0 
  147 1   4    0  0  0  1 
  148 1   1    1  1  0  0 
  149 1   6    1  1  0  0 
  150 1   8    1  1  0  0 
  151 1   1    1  1  0  0 
  152 1   2    1  1  0  0 
  153 1   2    1  0  0  0 
  154 1   2    0  0  1  0 
  155 1   4    0  0  0  1 
  156 1   1    1  1  0  0 
  157 1   6    1  1  0  0 
  158 1   8    1  1  0  0 
  159 1   1    1  1  0  0 
  160 1   2    1  1  0  0 
  161 1   2    1  0  0  0 
  162 1   2    0  0  1  0 
  163 1   4    0  0  0  1 
  164 1   1    1  1  0  0 
  165 1   6    1  1  0  0 
  166 1   8    1  1  0  0 
  167 1   1    1  1  0  0 
  168 1   2    1  1  0  0 
  169 1   2    1  0  0  0 
  170 1   2    0  0  1  0 
  171 1   4    0  0  0  1 
  172 1   1    1  1  0  0 
  173 1   6    1  1  0  0 
  174 1   8    1  1  0  0 
  175 1   1    1  1  0  0 
  176 1   2    1  1  0  0 
  177 1   2    1  0  0  0 
  178 1   2    0  0  1  0 
  179 1   4    0  0  0  1 
  180 1   1    1  1  0  0 
  181 1   6    1  1  0  0 
  182 1   8    1  1  0  0 
  183 1   1    1  1  0  0 
  184 1   2    1  1  0  0 
  185 1   2    1  0  0  0 
  186 1   2    0  0  1  0 
  187 1   4    0  0  0  1 
  188 1   1    1  1  0  0 
  189 1   6    1  1  0  0 
  190 1   8    1  1  0  0 
  191 1   1    1  1  0  0 
  192 1   2    1  1  0  0 
  193 1   2    1  0  0  0 
  194 1   2    0  0  1  0 
  195 1   4    0  0  0  1 
  196 1   1    1  1  0  0 
  197 1   6    1  1  0  0 
  198 1   8    1  1  0  0 
  199 1   1    1  1  0  0 
  200 1   2    1  1  0  0 
  202 1   0    0  0  0  0 

RESOURCEAVAILABILITIES:
R1 R2 R3 R4
10 10 10 10
